WARNING: for repeatability, setting FPU to use double precision
============================[ Problem Statistics ]=============================
|                                                                             |
|  Number of variables:        214715                                         |
|  Number of clauses:          507180                                         |
|  Parse time:                   0.18 s                                       |
|                                                                             |
============================[ Search Statistics ]==============================
| Conflicts |          ORIGINAL         |          LEARNT          | Progress |
|           |    Vars  Clauses Literals |    Limit  Clauses Lit/Cl |          |
===============================================================================
|       100 |  120080   488302  1095484 |   179044      100     13 | 44.075 % |
|       250 |  120080   488302  1095484 |   196948      250     78 | 44.075 % |
===============================================================================
restarts              : 3
conflicts             : 258            (694 /sec)
decisions             : 8280           (0.00 % random) (22257 /sec)
propagations          : 1160184        (3118581 /sec)
conflict literals     : 19531          (2.14 % deleted)
Memory used           : 56.00 MB
CPU time              : 0.372023 s

SATISFIABLE
